8416
28, 27, 46, 25, 4, 6, 15, 5, 24, 48, 38, 37, 40, 39, 36, 49, 22, 1, 31, 18, 3, 17, 21, 42, 2, 7, 30, 20, 23, 50, 29, 16, 44, 34, 35, 32, 45, 19, 8, 41, 9, 10, 43, 33, 12, 51, 11, 52, 13, 14, 47, 26
